WARNING: for repeatability, setting FPU to use double precision
Reading from standard input... Use '--help' for help.
============================[ Problem Statistics ]=============================
|                                                                             |
|  Number of variables:          4096                                         |
|  Number of clauses:           30576                                         |
|  Parse time:                   0.01 s                                       |
|  Eliminated clauses:           0.00 Mb                                      |
|  Simplification time:          0.01 s                                       |
|                                                                             |
LBD Based Clause Deletion : 1
Rapid Deletion : 1
Almost Conflict : 1
Anti Exploration : 1
============================[ Search Statistics ]==============================
| Conflicts |          ORIGINAL         |          LEARNT          | Progress |
|           |    Vars  Clauses Literals |    Limit  Clauses Lit/Cl |          |
===============================================================================
|       100 |     605     4351    11895 |     2000      100     45 | 81.665 % |
===============================================================================
restarts              : 3
conflicts             : 225            (12764 /sec)
decisions             : 644            (0.00 % random) (36533 /sec)
propagations          : 17952          (1018380 /sec)
conflict literals     : 9283           (7.65 % deleted)
actual reward         : 0.242002
Memory used           : 9.00 MB
CPU time              : 0.017628 s

SATISFIABLE
